27 6
12 19 16 16 14 19
1 0 0 0 0 0 0 3 2 3 4
7 0 0 5 3 2 0 4 5 6 7 8
1 3 10 0 0 7 0 3 27 7 8
3 0 0 0 5 6 0 3 5 7 8
1 5 0 4 0 0 2 3 10 11 12
1 0 0 4 4 8 0 4 9 10 11 12
8 1 0 0 7 0 3 2 9 12
1 0 4 9 2 0 5 3 9 11 12
2 9 0 6 8 1 7 4 13 14 15 16
4 0 2 5 0 4 10 4 13 14 15 16
5 8 8 0 0 0 10 4 13 14 15 16
1 8 8 9 0 3 2 4 13 14 15 16
1 0 0 4 7 0 0 4 17 18 19 20
3 2 0 0 5 0 4 4 17 18 19 20
1 4 0 0 7 0 9 4 17 18 19 20
8 2 0 0 5 0 8 4 17 18 19 20
1 0 5 6 10 0 5 4 21 22 23 24
8 7 9 0 0 5 0 4 21 22 23 24
1 0 7 7 4 7 1 4 21 22 23 24
3 5 0 0 0 0 0 4 21 22 23 24
6 4 6 9 1 0 0 2 25 26
2 0 0 7 4 0 10 2 25 26
2 0 10 0 0 0 9 2 25 26
10 0 9 0 0 9 2 2 25 26
1 1 9 0 0 4 6 1 27
4 0 7 0 3 10 0 1 27
0 0 0 0 0 0 0 0
